
Welcome to IBM(R) ILOG(R) CPLEX(R) Interactive Optimizer 22.1.1.0
  with Simplex, Mixed Integer & Barrier Optimizers
5725-A06 5725-A29 5724-Y48 5724-Y49 5724-Y54 5724-Y55 5655-Y21
Copyright IBM Corp. 1988, 2022.  All Rights Reserved.

Type 'help' for a list of available commands.
Type 'help' followed by a command name for more
information on commands.

CPLEX> Selected objective sense:  MINIMIZE
Selected objective  name:  00000000
Selected RHS        name:  RHS1
Selected bound      name:  BOUND
Problem 'ee.mps' read.
Read time = 0.03 sec. (3.17 ticks)
CPLEX> New value for time limit in seconds: 7200
CPLEX> New value for parallel optimization mode: -1
CPLEX> New value for default parallel thread count: 40
CPLEX> New value for mixed integer optimality gap tolerance: 1e-13
CPLEX> Version identifier: 22.1.1.0 | 2022-11-28 | 9160aff4d
CPXPARAM_Threads                                 40
CPXPARAM_Parallel                                -1
CPXPARAM_TimeLimit                               7200
CPXPARAM_MIP_Tolerances_MIPGap                   1e-13
Found incumbent of value 0.000000 after 0.00 sec. (0.31 ticks)
Tried aggregator 2 times.
MIP Presolve eliminated 179 rows and 2745 columns.
MIP Presolve modified 6090 coefficients.
Aggregator did 713 substitutions.
Reduced MIP has 3636 rows, 7835 columns, and 28933 nonzeros.
Reduced MIP has 7835 binaries, 0 generals, 0 SOSs, and 0 indicators.
Presolve time = 0.07 sec. (68.90 ticks)
Probing time = 0.03 sec. (5.34 ticks)
Tried aggregator 1 time.
Detecting symmetries...
Reduced MIP has 3636 rows, 7835 columns, and 28933 nonzeros.
Reduced MIP has 7835 binaries, 0 generals, 0 SOSs, and 0 indicators.
Presolve time = 0.03 sec. (22.00 ticks)
Probing time = 0.02 sec. (5.14 ticks)
Clique table members: 18783.
MIP emphasis: balance optimality and feasibility.
MIP search method: dynamic search.
Parallel mode: opportunistic, using up to 40 threads.
Root relaxation solution time = 0.08 sec. (67.57 ticks)

        Nodes                                         Cuts/
   Node  Left     Objective  IInf  Best Integer    Best Bound    ItCnt     Gap

*     0+    0                            0.0000  -1.54000e+13              --- 
*     0+    0                      -4.80000e+12  -1.54000e+13           220.83%
*     0+    0                      -6.00000e+12  -1.54000e+13           156.67%
      0     0  -1.53900e+13    77  -6.00000e+12  -1.53900e+13     1656  156.50%
*     0+    0                      -1.17900e+13  -1.53900e+13            30.53%
*     0+    0                      -1.53900e+13  -1.53900e+13             0.00%
      0     0  -1.53900e+13   152  -1.53900e+13      Cuts: 73     1944    0.00%
*     0+    0                      -1.53900e+13  -1.53900e+13             0.00%
      0     0  -1.53900e+13   171  -1.53900e+13      Cuts: 73     2720    0.00%
*     0+    0                      -1.53900e+13  -1.53900e+13             0.00%
*     0+    0                      -1.53900e+13  -1.53900e+13             0.00%
*     0+    0                      -1.53900e+13  -1.53900e+13             0.00%
      0     2  -1.53900e+13   171  -1.53900e+13  -1.53900e+13     2720    0.00%
Elapsed time = 2.15 sec. (1086.15 ticks, tree = 0.02 MB, solutions = 16)
*   692    94      integral     0  -1.53900e+13  -1.53900e+13    14094    0.00%
*   833    96      integral     0  -1.53900e+13  -1.53900e+13    20069    0.00%
   1103    71        cutoff        -1.53900e+13  -1.53900e+13    12949    0.00%
   1800   241  -1.53900e+13    73  -1.53900e+13  -1.53900e+13    56703    0.00%
   2996   822  -1.53900e+13    26  -1.53900e+13  -1.53900e+13   140806    0.00%
   3849  1005  -1.53900e+13    91  -1.53900e+13  -1.53900e+13   170875    0.00%
   4639   855  -1.53900e+13   145  -1.53900e+13  -1.53900e+13   146818    0.00%
   5437  1412  -1.53900e+13   120  -1.53900e+13  -1.53900e+13   232968    0.00%
   6135  1163  -1.53900e+13    91  -1.53900e+13  -1.53900e+13   195393    0.00%
   6831  2098  -1.53900e+13    40  -1.53900e+13  -1.53900e+13   370973    0.00%
   7629  2254  -1.53900e+13   146  -1.53900e+13  -1.53900e+13   398018    0.00%
  10726  2769  -1.53900e+13   155  -1.53900e+13  -1.53900e+13   480448    0.00%
Elapsed time = 7.23 sec. (4188.34 ticks, tree = 53.59 MB, solutions = 23)

Performing restart 1

Repeating presolve.
Tried aggregator 2 times.
MIP Presolve eliminated 29 rows and 19 columns.
MIP Presolve modified 1865 coefficients.
Aggregator did 3 substitutions.
Reduced MIP has 3528 rows, 7813 columns, and 28265 nonzeros.
Reduced MIP has 7813 binaries, 0 generals, 0 SOSs, and 0 indicators.
Presolve time = 0.05 sec. (39.77 ticks)
Tried aggregator 2 times.
MIP Presolve eliminated 11 rows and 40 columns.
MIP Presolve modified 28 coefficients.
Aggregator did 16 substitutions.
Reduced MIP has 3501 rows, 7751 columns, and 28039 nonzeros.
Reduced MIP has 7751 binaries, 0 generals, 0 SOSs, and 0 indicators.
Presolve time = 0.06 sec. (54.20 ticks)
Represolve time = 0.25 sec. (154.86 ticks)
  12056     0  -1.53900e+13   325  -1.53900e+13      Cuts: 68   763119    0.00%
  12056     0  -1.53900e+13   280  -1.53900e+13      Cuts: 66   763523    0.00%
  12056     0  -1.53900e+13   296  -1.53900e+13      Cuts: 56   763813    0.00%
  12056     0  -1.53900e+13   327  -1.53900e+13      Cuts: 58   764109    0.00%
  12056     0  -1.53900e+13   363  -1.53900e+13      Cuts: 62   764518    0.00%
  12056     0  -1.53900e+13   296  -1.53900e+13      Cuts: 86   767402    0.00%
  12056     0  -1.53900e+13   356  -1.53900e+13      Cuts: 61   768326    0.00%
  12056     0  -1.53900e+13   401  -1.53900e+13      Cuts: 60   769308    0.00%
  12056    19        cutoff        -1.53900e+13  -1.53900e+13   775674    0.00%
  12820    97  -1.53900e+13   216  -1.53900e+13  -1.53900e+13   789275    0.00%
  14525    94        cutoff        -1.53900e+13  -1.53900e+13   784719    0.00%
  16907   840        cutoff        -1.53900e+13  -1.53900e+13   924213    0.00%
  19848   534  -1.53900e+13   138  -1.53900e+13  -1.53900e+13   870600    0.00%
  22589   976  -1.53900e+13    31  -1.53900e+13  -1.53900e+13  1156924    0.00%
  24352   982        cutoff        -1.53900e+13  -1.53900e+13  1188422    0.00%
  25678   664        cutoff        -1.53900e+13  -1.53900e+13  1278160    0.00%

GUB cover cuts applied:  9
Clique cuts applied:  13
Cover cuts applied:  502
Mixed integer rounding cuts applied:  20
Zero-half cuts applied:  63
Lift and project cuts applied:  3
Gomory fractional cuts applied:  19

Root node processing (before b&c):
  Real time             =    1.31 sec. (1073.47 ticks)
Parallel b&c, 40 threads:
  Real time             =   23.09 sec. (16007.55 ticks)
  Sync time (average)   =    3.19 sec.
  Wait time (average)   =    0.12 sec.
                          ------------
Total (root+branch&cut) =   24.40 sec. (17081.03 ticks)

Solution pool: 31 solutions saved.

MIP - Integer optimal solution:  Objective = -1.5389998889e+13
Solution time =   24.55 sec.  Iterations = 1348046  Nodes = 25975
Deterministic time = 17081.06 ticks  (695.84 ticks/sec)

CPLEX> Solution 'p32' written to file 'ee.sol'.
CPLEX> 